639808.0
608
3 4 5 6 7 15 16 19 20 22 27 30 31 36 38 41 42 44 47 50 51 52 54 58 62 66 68 70 71 80 83 89 91 93 96 97 99 101 102 109 113 115 116 118 120 138 141 144 149 150 151 152 156 164 166 168 169 171 177 179 180 183 186 187 190 193 199 